\ENCODING=ISO-8859-1
\Problem name: IloCplex

Maximize
 obj1: 0.727272727272727 G_1 + 0.136363636363636 G_4 + 0.272727272727273 G_5
Subject To
 c1: 180 G_1 + 60 G_4 + 80 G_5 + 70 G_2 + 50 G_3 <= 300
Bounds
      G_1 >= 0
      G_4 >= 0
      G_5 >= 0
      G_2 >= 0
      G_3 >= 0
Generals
 G_1  G_4  G_5  G_2  G_3 
End
